rank = 4;
n = 16;
target_value = 507;
graph = array2d(1..16, 1..16, [0, 1, 2, 3, 4, 5, 6, 7, 8, 9, 10, 11, 12, 13, 14, 15, 1, 0, 16, 17, 18, 19, 20, 21, 22, 23, 24, 25, 26, 27, 28, 29, 2, 16, 0, 30, 31, 32, 33, 34, 35, 36, 37, 38, 39, 40, 41, 42, 3, 17, 30, 0, 43, 44, 45, 46, 47, 48, 49, 50, 51, 52, 53, 54, 4, 18, 31, 43, 0, 55, 56, 57, 58, 59, 60, 61, 62, 63, 64, 65, 5, 19, 32, 44, 55, 0, 66, 67, 68, 69, 70, 71, 72, 73, 74, 75, 6, 20, 33, 45, 56, 66, 0, 76, 77, 78, 79, 80, 81, 82, 83, 84, 7, 21, 34, 46, 57, 67, 76, 0, 85, 86, 87, 88, 89, 90, 91, 92, 8, 22, 35, 47, 58, 68, 77, 85, 0, 93, 94, 95, 96, 97, 98, 99, 9, 23, 36, 48, 59, 69, 78, 86, 93, 0, 100, 101, 102, 103, 104, 105, 10, 24, 37, 49, 60, 70, 79, 87, 94, 100, 0, 106, 107, 108, 109, 110, 11, 25, 38, 50, 61, 71, 80, 88, 95, 101, 106, 0, 111, 112, 113, 114, 12, 26, 39, 51, 62, 72, 81, 89, 96, 102, 107, 111, 0, 115, 116, 117, 13, 27, 40, 52, 63, 73, 82, 90, 97, 103, 108, 112, 115, 0, 118, 119, 14, 28, 41, 53, 64, 74, 83, 91, 98, 104, 109, 113, 116, 118, 0, 120, 15, 29, 42, 54, 65, 75, 84, 92, 99, 105, 110, 114, 117, 119, 120, 0]);
n_edges = 32;
edge_1 = [1, 1, 1, 1, 2, 2, 2, 3, 3, 3, 4, 4, 5, 5, 5, 6, 6, 7, 7, 8, 9, 9, 9, 10, 10, 11, 11, 12, 13, 13, 14, 15];
edge_2 = [2, 3, 5, 9, 4, 6, 10, 4, 7, 11, 8, 12, 6, 7, 13, 8, 14, 8, 15, 16, 10, 11, 13, 12, 14, 12, 15, 16, 14, 15, 16, 16];
